
  32    1
  10

   0   0  10 2 3 4 5 6 7 9 10 15 16 
   4   1  11 29 28 27 26 25 24 23 22 21 20 17 
   8   5   5 30 22 14 13 8 
   1   6   6 27 25 24 23 18 12 
   4   7   5 27 26 24 21 11 
   5   4   7 31 30 29 28 25 22 14 
   1   9   4 29 27 21 11 
   5   5   6 26 24 23 21 20 19 
   8   2   5 26 25 21 20 17 
   9   7   5 25 24 21 20 17 
   2   9   3 23 22 14 
   4   4   4 28 22 21 17 
   3   5   3 24 23 17 
   5  10   2 20 17 
   7   2   2 22 20 
   2   7   2 22 19 
   7   5   1 19 
   7   6   1 21 
   7   3   1 32
   9  10   1 32
  10   7   1 32
   5   6   1 32
   5   5   1 32
   2  10   1 32
   2   8   1 32
   5   4   1 32
   8   5   1 32
   9   6   1 32
   7   4   1 32
   2  10   1 32
   2   8   1 32
   0   0   0 
